n1 = 5;
adjacent1 = [| 0, 0, 0, 0, 1
| 0, 0, 0, 0, 0
| 0, 0, 0, 1, 0
| 0, 0, 1, 0, 0
| 1, 0, 0, 0, 0 |];
n2 = 5;
adjacent2 = [| 0, 0, 0, 0, 1
| 0, 0, 0, 0, 0
| 0, 0, 0, 1, 0
| 0, 0, 1, 0, 0
| 1, 0, 0, 0, 0 |];
vertexDeletionCost = [45, 45, 45, 45, 45];
vertexInsertionCost = [45, 45, 45, 45, 45];
vertexSubstitutionCost = [| 7.7781745930520225, 90, 90, 31.32491021535417, 90
| 90, 11.313708498984761, 90, 90, 90
| 90, 90, 1.4142135623730951, 90, 49.80461825975579
| 46.19794367718113, 90, 90, 9.219544457292887, 90
| 90, 90, 42.2965719651132, 90, 8.631338250816034 |];
edgeDeletionCost = [| 0.0, 0.0, 0.0, 0.0, 15.0
| 0.0, 0.0, 0.0, 0.0, 0.0
| 0.0, 0.0, 0.0, 15.0, 0.0
| 0.0, 0.0, 15.0, 0.0, 0.0
| 15.0, 0.0, 0.0, 0.0, 0.0 |];
edgeInsertionCost = [| 0.0, 0.0, 0.0, 0.0, 15.0
| 0.0, 0.0, 0.0, 0.0, 0.0
| 0.0, 0.0, 0.0, 15.0, 0.0
| 0.0, 0.0, 15.0, 0.0, 0.0
| 15.0, 0.0, 0.0, 0.0, 0.0 |];
edgeSubstitutionCost = array4d(1..n1, 1..n1, 1..n2, 1..n2, [0, 0, 0, 0, 15.0, 0, 0, 0, 0, 0, 0, 0, 0, 15.0, 0, 0, 0, 15.0, 0, 0, 15.0, 0, 0, 0, 0, 0, 0, 0, 0, 15.0, 0, 0, 0, 0, 0, 0, 0, 0, 15.0, 0, 0, 0, 15.0, 0, 0, 15.0, 0, 0, 0, 0, 0, 0, 0, 0, 15.0, 0, 0, 0, 0, 0, 0, 0, 0, 15.0, 0, 0, 0, 15.0, 0, 0, 15.0, 0, 0, 0, 0, 0, 0, 0, 0, 15.0, 0, 0, 0, 0, 0, 0, 0, 0, 15.0, 0, 0, 0, 15.0, 0, 0, 15.0, 0, 0, 0, 0, 15.0, 15.0, 15.0, 15.0, 0.0, 15.0, 15.0, 15.0, 15.0, 15.0, 15.0, 15.0, 15.0, 0.0, 15.0, 15.0, 15.0, 0.0, 15.0, 15.0, 0.0, 15.0, 15.0, 15.0, 15.0, 0, 0, 0, 0, 15.0, 0, 0, 0, 0, 0, 0, 0, 0, 15.0, 0, 0, 0, 15.0, 0, 0, 15.0, 0, 0, 0, 0, 0, 0, 0, 0, 15.0, 0, 0, 0, 0, 0, 0, 0, 0, 15.0, 0, 0, 0, 15.0, 0, 0, 15.0, 0, 0, 0, 0, 0, 0, 0, 0, 15.0, 0, 0, 0, 0, 0, 0, 0, 0, 15.0, 0, 0, 0, 15.0, 0, 0, 15.0, 0, 0, 0, 0, 0, 0, 0, 0, 15.0, 0, 0, 0, 0, 0, 0, 0, 0, 15.0, 0, 0, 0, 15.0, 0, 0, 15.0, 0, 0, 0, 0, 0, 0, 0, 0, 15.0, 0, 0, 0, 0, 0, 0, 0, 0, 15.0, 0, 0, 0, 15.0, 0, 0, 15.0, 0, 0, 0, 0, 0, 0, 0, 0, 15.0, 0, 0, 0, 0, 0, 0, 0, 0, 15.0, 0, 0, 0, 15.0, 0, 0, 15.0, 0, 0, 0, 0, 0, 0, 0, 0, 15.0, 0, 0, 0, 0, 0, 0, 0, 0, 15.0, 0, 0, 0, 15.0, 0, 0, 15.0, 0, 0, 0, 0, 0, 0, 0, 0, 15.0, 0, 0, 0, 0, 0, 0, 0, 0, 15.0, 0, 0, 0, 15.0, 0, 0, 15.0, 0, 0, 0, 0, 15.0, 15.0, 15.0, 15.0, 0.0, 15.0, 15.0, 15.0, 15.0, 15.0, 15.0, 15.0, 15.0, 0.0, 15.0, 15.0, 15.0, 0.0, 15.0, 15.0, 0.0, 15.0, 15.0, 15.0, 15.0, 0, 0, 0, 0, 15.0, 0, 0, 0, 0, 0, 0, 0, 0, 15.0, 0, 0, 0, 15.0, 0, 0, 15.0, 0, 0, 0, 0, 0, 0, 0, 0, 15.0, 0, 0, 0, 0, 0, 0, 0, 0, 15.0, 0, 0, 0, 15.0, 0, 0, 15.0, 0, 0, 0, 0, 0, 0, 0, 0, 15.0, 0, 0, 0, 0, 0, 0, 0, 0, 15.0, 0, 0, 0, 15.0, 0, 0, 15.0, 0, 0, 0, 0, 15.0, 15.0, 15.0, 15.0, 0.0, 15.0, 15.0, 15.0, 15.0, 15.0, 15.0, 15.0, 15.0, 0.0, 15.0, 15.0, 15.0, 0.0, 15.0, 15.0, 0.0, 15.0, 15.0, 15.0, 15.0, 0, 0, 0, 0, 15.0, 0, 0, 0, 0, 0, 0, 0, 0, 15.0, 0, 0, 0, 15.0, 0, 0, 15.0, 0, 0, 0, 0, 0, 0, 0, 0, 15.0, 0, 0, 0, 0, 0, 0, 0, 0, 15.0, 0, 0, 0, 15.0, 0, 0, 15.0, 0, 0, 0, 0, 15.0, 15.0, 15.0, 15.0, 0.0, 15.0, 15.0, 15.0, 15.0, 15.0, 15.0, 15.0, 15.0, 0.0, 15.0, 15.0, 15.0, 0.0, 15.0, 15.0, 0.0, 15.0, 15.0, 15.0, 15.0, 0, 0, 0, 0, 15.0, 0, 0, 0, 0, 0, 0, 0, 0, 15.0, 0, 0, 0, 15.0, 0, 0, 15.0, 0, 0, 0, 0, 0, 0, 0, 0, 15.0, 0, 0, 0, 0, 0, 0, 0, 0, 15.0, 0, 0, 0, 15.0, 0, 0, 15.0, 0, 0, 0, 0, 0, 0, 0, 0, 15.0, 0, 0, 0, 0, 0, 0, 0, 0, 15.0, 0, 0, 0, 15.0, 0, 0, 15.0, 0, 0, 0, 0, 0, 0, 0, 0, 15.0, 0, 0, 0, 0, 0, 0, 0, 0, 15.0, 0, 0, 0, 15.0, 0, 0, 15.0, 0, 0, 0, 0]);
